benchmarks/VRPTW/TSPTW/solution/n20w100.004.txt.solution
1 14 7 19 18 15 11 3 12 13 2 17 20 16 9 4 5 6 8 10 21 
349
